n = 5;
m = 4;
dias_regimen_alto_permitidos = 1;
porcentaje_regimen_alto = 75;
capacidad = [300, 300, 500];
costo_produccion = [40, 60, 50];
demanda = [| 100, 150, 120, 90, 80
           | 80, 70, 110, 100, 90
           | 130, 120, 90, 80, 70
           | 300, 390, 380, 370, 360 |];
pago_por_mw = [60, 70, 80, 90];
G = 60;
